Traveling Salesman Problem/TSP_generados/Aleatorio1620391016_13.tsp
NAME: Aleatorio1620391016_13.tsp
COMMENT: Randomly generated scenario
TYPE: TSP
DIMENSION: 13
EDGE_WEIGHT_TYPE: ATT
NODE_COORD_SECTION
1 1.3 25.25
2 6.94 23.55
3 44.51 12.12
4 7.5 25.87
5 23.47 20.08
6 10.98 4.43
7 49.8 20.66
8 8.94 37.16
9 28.71 35.46
10 40.79 2.41
11 19.09 0.91
12 11.67 40.4
13 15.48 24.07
