Traveling Salesman Problem/TSP_generados/Aleatorio1620391016_13.opt.tour
NAME: Aleatorio1620391016_13.opt.tour
COMMENT: Optimal solution for Aleatorio1620391016_13 (158.3413969043611)
TYPE: TOUR
DIMENSION: 13
TOUR_SECTION
1 8 12 9 7 3 10 11 6 5 13 4 2
-1
EOF
